NAME : B-n15-k5
CAPACITY : 864
NODE_COORD_SECTION
1   441   129
2   406   450
3   109   415
4   197   332
5   238   105
6   379   68
7   437   314
8   238   442
9   304   92
10   405   475
11   408   205
12   403   428
13   314   328
14   366   319
15   436   449
DEMAND_SECTION
1   0
2   17
3   51
4   99
5   14
6   81
7   59
8   10
9   35
10   5
11   59
12   47
13   63
14   81
15   97
DEPOT_SECTION
    1
    -1
EOF